============================[ Problem Statistics ]=============================|                                                                             ||  Number of variables:          4242                                         ||  Number of clauses:            9711                                         ||  Parse time:                   0.12 s                                       ||                                                                             |============================[ Search Statistics ]==============================| Conflicts |          ORIGINAL         |          LEARNT          | Progress ||           |    Vars  Clauses Literals |    Limit  Clauses Lit/Cl |          |==============================================================================================================================================================restarts              : 1conflicts             : 71             (388 /sec)decisions             : 156            (0.00 % random) (852 /sec)propagations          : 8178           (44689 /sec)conflict literals     : 3485           (95.94 % deleted)CPU time              : 0.183 sSATISFIABLE